nbNodes = 12;
nbVehi = 3;
nbServi = 4;

e = 
 [ 0,  388,  436,  104,  220,   70,  328,  398,  446,  177,  359,    0,];

l = 
 [480, 480, 520, 166, 320, 151, 407, 504, 519, 244, 459, 480,];

a = 
 [|  1,  1,  1,  1,
 |  1,  1,  0,  1,
 |  1,  1,  1,  0,
 |];

p = array3d(1..nbNodes,1..nbVehi,1..nbServi,
[  0,  0,  0,  0,	  0,  0,  0,  0,	  0,  0,  0,  0,	
 26, 15, 32, 40,	 12, 41, 19, 38,	 42, 10, 27, 30,	
 35, 38, 43, 41,	 15, 34, 41, 43,	 33, 22, 22, 29,	
 24, 11, 36, 37,	 27, 20, 38, 17,	 40, 22, 19, 24,	
 23, 21, 20, 26,	 31, 40, 29, 40,	 20, 43, 12, 21,	
 17, 28, 14, 40,	 32, 18, 40, 16,	 17, 36, 10, 35,	
 13, 37, 11, 12,	 18, 18, 26, 26,	 36, 40, 31, 26,	
 18, 16, 12, 28,	 39, 23, 24, 14,	 15, 12, 21, 36,	
 24, 31, 27, 13,	 18, 12, 25, 12,	 34, 40, 22, 29,	
 30, 34, 15, 35,	 19, 40, 34, 19,	 19, 13, 10, 31,	
 14, 39, 36, 34,	 40, 29, 13, 20,	 22, 42, 39, 31,	
  0,  0,  0,  0,	  0,  0,  0,  0,	  0,  0,  0,  0,	
]);

rs = 
[|  true,  true,  true,  true,	 	
|  false,  false,  true,  false,	  	
|  true,  false,  false,  false,	  	
|  false,  false,  false,  true,	  	
|  false,  false,  false,  true,	  	
|  true,  false,  false,  false,	  	
|  true,  false,  false,  false,	  	
|  false,  false,  false,  true,	  	
|  false,  true,  false,  false,	  	
|  false,  true,  false,  false,	  	
|  false,  false,  true,  false,	  	
|  true,  true,  true,  true,	  	
|];

d=[|0, 24, 0, 0, 10, 3, 13, 25, 3, 11, 2, 0, 
|24, 0, 24, 24, 34, 21, 36, 33, 27, 31, 23, 24, 
|0, 24, 0, 0, 10, 3, 13, 25, 3, 11, 2, 0, 
|0, 24, 0, 0, 10, 3, 13, 25, 3, 11, 2, 0, 
|10, 34, 10, 10, 0, 13, 7, 26, 7, 12, 11, 10, 
|3, 21, 3, 3, 13, 0, 15, 26, 6, 12, 4, 3, 
|13, 36, 13, 13, 7, 15, 0, 34, 10, 6, 15, 13, 
|25, 33, 25, 25, 26, 26, 34, 0, 26, 36, 23, 25, 
|3, 27, 3, 3, 7, 6, 10, 26, 0, 9, 5, 3, 
|11, 31, 11, 11, 12, 12, 6, 36, 9, 0, 13, 11, 
|2, 23, 2, 2, 11, 4, 15, 23, 5, 13, 0, 2, 
|0, 24, 0, 0, 10, 3, 13, 25, 3, 11, 2, 0, 
|];
